(set-logic QF_LIA)
(declare-fun x0 () Int)
(declare-fun x1 () Int)
(declare-fun x2 () Int)
(declare-fun x3 () Int)
(declare-fun x4 () Int)
(declare-fun x5 () Int)
(declare-fun x6 () Int)
(declare-fun x7 () Int)
(declare-fun x8 () Int)
(declare-fun x9 () Int)
(declare-fun A1 () Bool)
(declare-fun A2 () Bool)
(declare-fun A4 () Bool)
(declare-fun A5 () Bool)
(declare-fun A6 () Bool)
(declare-fun A7 () Bool)
(declare-fun A8 () Bool)
(assert (let ((.def_0 (or A8 A8))) (let ((.def_1 (not A2))) (let ((.def_2 (* 1 x1))) (let ((.def_3 (* 1 x5))) (let ((.def_4 (+ .def_3 .def_2))) (let ((.def_5 (< .def_4 1))) (let ((.def_6 (not .def_5))) (let ((.def_7 (or .def_6 .def_1))) (let ((.def_8 (not .def_7))) (let ((.def_9 (or .def_8 .def_0))) (let ((.def_10 (= A8 A6))) (let ((.def_11 (not .def_10))) (let ((.def_12 (* (- 1) x0))) (let ((.def_13 (* (- 1) x4))) (let ((.def_14 (+ .def_13 .def_12))) (let ((.def_15 (< .def_14 1))) (let ((.def_16 (not .def_15))) (let ((.def_17 (and .def_16 A1))) (let ((.def_18 (not .def_17))) (let ((.def_19 (or .def_18 .def_11))) (let ((.def_20 (not .def_19))) (let ((.def_21 (and .def_20 .def_9))) (let ((.def_22 (not A5))) (let ((.def_23 (= A7 .def_22))) (let ((.def_24 (* (- 1) x1))) (let ((.def_25 (< .def_24 (- 1)))) (let ((.def_26 (not .def_25))) (let ((.def_27 (not A8))) (let ((.def_28 (or .def_27 .def_26))) (let ((.def_29 (and .def_28 .def_23))) (let ((.def_30 (not .def_29))) (let ((.def_31 (* (- 1) x6))) (let ((.def_32 (< .def_31 1))) (let ((.def_33 (not .def_32))) (let ((.def_34 (* 1 x4))) (let ((.def_35 (+ .def_3 .def_34))) (let ((.def_36 (< .def_35 (- 1)))) (let ((.def_37 (and .def_36 .def_33))) (let ((.def_38 (* (- 1) x8))) (let ((.def_39 (+ .def_38 .def_12))) (let ((.def_40 (< .def_39 1))) (let ((.def_41 (or .def_40 A4))) (let ((.def_42 (or .def_41 .def_37))) (let ((.def_43 (or .def_42 .def_30))) (let ((.def_44 (= .def_43 .def_21))) (let ((.def_45 (not .def_44))) (let ((.def_46 (<= x9 1))) (let ((.def_47 (<= 0 x9))) (let ((.def_48 (<= x8 1))) (let ((.def_49 (<= 0 x8))) (let ((.def_50 (<= x7 1))) (let ((.def_51 (<= 0 x7))) (let ((.def_52 (<= x6 1))) (let ((.def_53 (<= 0 x6))) (let ((.def_54 (<= x5 1))) (let ((.def_55 (<= 0 x5))) (let ((.def_56 (<= x4 1))) (let ((.def_57 (<= 0 x4))) (let ((.def_58 (<= x3 1))) (let ((.def_59 (<= 0 x3))) (let ((.def_60 (<= x2 1))) (let ((.def_61 (<= 0 x2))) (let ((.def_62 (<= x1 1))) (let ((.def_63 (<= 0 x1))) (let ((.def_64 (<= x0 1))) (let ((.def_65 (<= 0 x0))) (let ((.def_66 (and .def_65 .def_64 .def_63 .def_62 .def_61 .def_60 .def_59 .def_58 .def_57 .def_56 .def_55 .def_54 .def_53 .def_52 .def_51 .def_50 .def_49 .def_48 .def_47 .def_46 .def_45))) .def_66))))))))))))))))))))))))))))))))))))))))))))))))))))))))))))))))))))
(check-sat)
